>> Start of run:  20-APR-2024  14:44:43

reinit: Reading from standard input
reinit: Dumped input in INPUT_TMP.37736
************************** Dump of input data file ****************************
        # -- NAME & LABEL --
SystemName       DOS_calculation
SystemLabel      graphene
        # -- MATERIAL --
NumberOfAtoms    2
NumberOfSpecies  1
%block ChemicalSpeciesLabel
    1    6  C
%endblock ChemicalSpeciesLabel
       # -- CELL & ATOMIC POSITIONS
LatticeConstant 1.0 Ang
%block LatticeParameters
  2.460000  2.460000  20.000000  90.000000  90.000000  120.000000
%endblock LatticeParameters
AtomicCoordinatesFormat NotScaledCartesianAng
%block AtomicCoordinatesAndAtomicSpecies
     0.000000000     0.000000000     9.700000000    1
    -0.000012300     1.420288764     9.700000000    1
%endblock AtomicCoordinatesAndAtomicSpecies
       # --MONKHORST PACK --
%block kgrid_Monkhorst_Pack
18   0   0      0
0    18   0     0
0    0   1      0
%endblock kgrid_Monkhorst_Pack
       # --SELF CONSISTENT FIELD - -
MeshCutoff           200.0 Ry
PAO.BasisSize        DZP    # or DZP
PAO.BasisType        split
SolutionMethod       diagon
XC.authors           PBE
XC.functional        GGA
MaxSCFIterations     200
DM.Tolerance         1.d-6    # 0.01 eV
DM.MixingWeight      0.05
DM.NumberPulay       5
       # --MOLECULAR DYNAMICS or CONJUGATE GRADIENT METHOD --
MD.TypeOfRun         cg     # cg: stuctural optimization
MD.NumCGsteps        0    # maximum number of cg minimization moves
MD.MaxCGDispl        0.05  Ang
MD.MaxForceTol       0.02 eV/Ang
MD.VariableCell      T      # T: true, cell relaxation; otherwise: F
MD.ConstantVolume    F
MD.UseSaveXV         T      # read the atomic positions stored in the SystemLabel.XV file
MD.UseSaveCG         F      # read the cg history information stored in the SystemLabel.CG file; used for continuation of the interrupted CG runs
WriteMDHistory       T      # store the atomic coordinates and energy,temperature, etc. in the SystemLabel.MD and SystemLabel.MDE
       # -- SPIN --
SpinPolarized        F      #If spin polarized, use T
DM.InitSpinAF        F      #gives the antiferromagnetic order if T, otherwise all spin up if F
       # -- SAVING DENSITY MATRIX FOR POST RUN --
ON.UseSAVELWF        F
DM.UseSaveDM         F
UseSaveData          F
LongOutput           T
       # -- PROJECTED DOS & BAND STRUCTURE --
%block ProjectedDensityOfStates      #to write the Total DOS and PDOS on the basis orbitals, between two given energies
-15.00 15.00 0.1 500 eV              # energy window from -15 to 15 eV; with gaussian smearing of 0.1 eV; 500 points in the histogram.
%endblock ProjectedDensityOfStates
%block PDOS.kgrid_Monkhorst_Pack
    64   0   0      0
    0    64   0     0
    0    0   1      0
%endblock block PDOS.kgrid_Monkhorst_Pack
BandLinesScale       ReciprocalLatticeVectors
%block BandLines
1     0.000000  0.000000  0.000000    \Gamma
100   0.000000  0.500000  0.000000    M
100   -0.333333 0.666666  0.000000    K
100   0.000000  0.000000  0.000000    \Gamma
%endblock BandLines
       # --Others--
WriteHirshfeldPop   T
WriteVoronoiPop     T
WriteMullikenPop    1
************************** End of input data file *****************************

reinit: -----------------------------------------------------------------------
reinit: System Name: DOS_calculation
reinit: -----------------------------------------------------------------------
reinit: System Label: graphene
reinit: -----------------------------------------------------------------------

initatom: Reading input for the pseudopotentials and atomic orbitals ----------
Species number:   1 Atomic number:    6 Label: C

Ground state valence configuration:   2s02  2p02
Reading pseudopotential information in formatted form from C.psf

Valence configuration for pseudopotential generation:
2s( 2.00) rc: 1.56
2p( 2.00) rc: 1.56
3d( 0.00) rc: 1.56
4f( 0.00) rc: 1.56
For C, standard SIESTA heuristics set lmxkb to 3
 (one more than the basis l, including polarization orbitals).
Use PS.lmax or PS.KBprojectors blocks to override.

<basis_specs>
C                    Z=   6    Mass=  12.010        Charge= 0.17977+309
Lmxo=1 Lmxkb= 3    BasisType=split      Semic=F
L=0  Nsemic=0  Cnfigmx=2
          i=1  nzeta=2  polorb=0  (2s)
            splnorm:   0.15000
               vcte:    0.0000
               rinn:    0.0000
               qcoe:    0.0000
               qyuk:    0.0000
               qwid:   0.10000E-01
                rcs:    0.0000      0.0000
            lambdas:    1.0000      1.0000
L=1  Nsemic=0  Cnfigmx=2
          i=1  nzeta=2  polorb=1  (2p)
            splnorm:   0.15000
               vcte:    0.0000
               rinn:    0.0000
               qcoe:    0.0000
               qyuk:    0.0000
               qwid:   0.10000E-01
                rcs:    0.0000      0.0000
            lambdas:    1.0000      1.0000
L=0  Nkbl=1  erefs: 0.17977+309
L=1  Nkbl=1  erefs: 0.17977+309
L=2  Nkbl=1  erefs: 0.17977+309
L=3  Nkbl=1  erefs: 0.17977+309
</basis_specs>

atom: Called for C                     (Z =   6)

read_vps: Pseudopotential generation method:
read_vps: ATM 3.2.2 Troullier-Martins
Total valence charge:    4.00000

xc_check: Exchange-correlation functional:
xc_check: GGA Perdew, Burke & Ernzerhof 1996
V l=0 = -2*Zval/r beyond r=  1.5227
V l=1 = -2*Zval/r beyond r=  1.5227
V l=2 = -2*Zval/r beyond r=  1.5227
V l=3 = -2*Zval/r beyond r=  1.5227
All V_l potentials equal beyond r=  1.4851
This should be close to max(r_c) in ps generation
All pots = -2*Zval/r beyond r=  1.5227

VLOCAL1: 99.0% of the norm of Vloc inside     19.682 Ry
VLOCAL1: 99.9% of the norm of Vloc inside     44.856 Ry
atom: Maximum radius for 4*pi*r*r*local-pseudopot. charge    1.79142
atom: Maximum radius for r*vlocal+2*Zval:    1.54183
GHOST: No ghost state for L =  0
GHOST: No ghost state for L =  1
GHOST: No ghost state for L =  2
GHOST: No ghost state for L =  3

KBgen: Kleinman-Bylander projectors:
   l= 0   rc=  1.661951   el= -1.010689   Ekb=  5.289847   kbcos=  0.316429
   l= 1   rc=  1.661951   el= -0.388490   Ekb= -4.102504   kbcos= -0.351025
   l= 2   rc=  1.747182   el=  0.001971   Ekb= -1.006005   kbcos= -0.008530
   l= 3   rc=  1.791422   el=  0.003065   Ekb= -0.421399   kbcos= -0.001072

KBgen: Total number of  Kleinman-Bylander projectors:   16
atom: -------------------------------------------------------------------------

atom: SANKEY-TYPE ORBITALS:
atom: Selected multiple-zeta basis: split

SPLIT: Orbitals with angular momentum L= 0

SPLIT: Basis orbitals for state 2s

SPLIT: PAO cut-off radius determined from an
SPLIT: energy shift=  0.020000 Ry

   izeta = 1
                 lambda =    1.000000
                     rc =    4.088342
                 energy =   -0.990050
                kinetic =    0.909804
    potential(screened) =   -1.899854
       potential(ionic) =   -5.513925

   izeta = 2
                 rmatch =    3.347176
              splitnorm =    0.150000
                 energy =   -0.836186
                kinetic =    1.375045
    potential(screened) =   -2.211230
       potential(ionic) =   -6.057915

SPLIT: Orbitals with angular momentum L= 1

SPLIT: Basis orbitals for state 2p

SPLIT: PAO cut-off radius determined from an
SPLIT: energy shift=  0.020000 Ry

   izeta = 1
                 lambda =    1.000000
                     rc =    4.870301
                 energy =   -0.368677
                kinetic =    2.532104
    potential(screened) =   -2.900781
       potential(ionic) =   -6.401132

   izeta = 2
                 rmatch =    3.475094
              splitnorm =    0.150000
                 energy =   -0.205777
                kinetic =    3.787472
    potential(screened) =   -3.993249
       potential(ionic) =   -7.860448

POLgen: Perturbative polarization orbital with L=  2

POLgen: Polarization orbital for state 2p

   izeta = 1
                     rc =    4.870301
                 energy =    1.296521
                kinetic =    2.641128
    potential(screened) =   -1.344607
       potential(ionic) =   -4.300412
atom: Total number of Sankey-type orbitals: 13

atm_pop: Valence configuration (for local Pseudopot. screening):
 2s( 2.00)
 2p( 2.00)
Vna: chval, zval:    4.00000   4.00000

Vna:  Cut-off radius for the neutral-atom potential:   4.870301

atom: _________________________________________________________________________

prinput: Basis input ----------------------------------------------------------

PAO.BasisType split

%block ChemicalSpeciesLabel
    1    6 C                       # Species index, atomic number, species label
%endblock ChemicalSpeciesLabel

%block PAO.Basis                 # Define Basis set
C                     2                    # Species label, number of l-shells
 n=2   0   2                         # n, l, Nzeta
   4.088      3.347
   1.000      1.000
 n=2   1   2 P   1                   # n, l, Nzeta, Polarization, NzetaPol
   4.870      3.475
   1.000      1.000
%endblock PAO.Basis

prinput: ----------------------------------------------------------------------

Dumping basis to NetCDF file C.ion.nc
coor:   Atomic-coordinates input format  =     Cartesian coordinates
coor:                                          (in Angstroms)

ioxv: Reading coordinates and velocities from file
! Info in XV file prevails over previous structure input

siesta: Atomic coordinates (Bohr) and species
siesta:     -0.00092   0.00053  18.33113  1        1
siesta:      0.00030   2.70145  18.33041  1        2

siesta: System type = slab

initatomlists: Number of atoms, orbitals, and projectors:      2    26    32

siesta: ******************** Simulation parameters ****************************
siesta:
siesta: The following are some of the parameters of the simulation.
siesta: A complete list of the parameters used, including default values,
siesta: can be found in file out.fdf
siesta:
redata: Spin configuration                          = none
redata: Number of spin components                   = 1
redata: Time-Reversal Symmetry                      = T
redata: Spin-spiral                                 = F
redata: Long output                                 =   T
redata: Number of Atomic Species                    =        1
redata: Charge density info will appear in .RHO file
redata: Write Mulliken Pop.                         = Atomic and Orbital charges
redata: Matel table size (NRTAB)                    =     1024
redata: Mesh Cutoff                                 =   200.0000 Ry
redata: Net charge of the system                    =     0.0000 |e|
redata: Min. number of SCF Iter                     =        0
redata: Max. number of SCF Iter                     =      200
redata: SCF convergence failure will abort job
redata: SCF mix quantity                            = Hamiltonian
redata: Mix DM or H after convergence               =   F
redata: Recompute H after scf cycle                 =   F
redata: Mix DM in first SCF step                    =   T
redata: Write Pulay info on disk                    =   F
redata: New DM Occupancy tolerance                  = 0.000000000001
redata: No kicks to SCF
redata: DM Mixing Weight for Kicks                  =     0.5000
[...]

siesta: Band energies (eV):
  ik is       eps
   1  1  -22.9431  -11.0935   -6.7464   -6.7149    4.5504    4.6049    7.7410    8.7014    8.7737   12.6453
          23.0244   27.9356   27.9432   42.7381   42.8461   43.1896   43.2450   46.6673   46.6945   51.3741
   62.7304   62.8968   73.0026   73.0403   76.0110  108.5601
   2  1  -22.9426  -11.0928   -6.7486   -6.7165    4.5524    4.6059    7.7390    8.7024    8.7735   12.6456
          23.0228   27.9320   27.9389   42.7459   42.8503   43.1414   43.1888   46.6985   46.7263   51.4165
   62.7613   62.9198   73.0063   73.0472   75.9815  108.5721
   3  1  -22.9410  -11.0907   -6.7552   -6.7211    4.5583    4.6089    7.7329    8.7054    8.7732   12.6463
          23.0181   27.9198   27.9273   42.7678   42.8642   42.9753   43.0582   46.7857   46.8129   51.5415
   62.8498   62.9938   73.0158   73.0695   75.8931  108.6085
   4  1  -22.9385  -11.0872   -6.7664   -6.7286    4.5671    4.6149    7.7228    8.7103    8.7726   12.6476
          23.0103   27.8967   27.9108   42.7033   42.7987   42.8791   42.8930   46.9123   46.9363   51.7423
   62.9807   63.1366   73.0297   73.1092   75.7464  108.6694
   5  1  -22.9349  -11.0824   -6.7824   -6.7386    4.5773    4.6254    7.7087    8.7173    8.7719   12.6493
          22.9997   27.8634   27.8890   42.3650   42.6552   42.8305   42.9445   47.0465   47.0916   52.0075
   63.1414   63.3646   73.0477   73.1671   75.5422  108.7557
   6  1  -22.9302  -11.0761   -6.8034   -6.7511    4.5870    4.6422    7.6905    8.7262    8.7712   12.6515
          22.9865   27.8207   27.8613   41.9858   42.3972   42.8600   43.0216   47.1694   47.2697   52.3218
   63.3394   63.6756   73.0704   73.2436   75.2820  108.8681
   7  1  -22.9246  -11.0685   -6.8292   -6.7659    4.5951    4.6662    7.6684    8.7372    8.7704   12.6542
          22.9711   27.7691   27.8277   41.5835   42.1151   42.8896   43.1216   47.2782   47.4556   52.6672
   63.5860   64.0636   73.0985   73.3397   74.9672  109.0078
   8  1  -22.9178  -11.0595   -6.8600   -6.7829    4.6021    4.6969    7.6423    8.7501    8.7700   12.6575
          22.9536   27.7091   27.7881   41.1700   41.8167   42.9216   43.2419   47.3718   47.6404   53.0253
   63.8888   64.5262   73.1327   73.4567   74.5998  109.1762
   9  1  -22.9101  -11.0492   -6.8954   -6.8023    4.6085    4.7335    7.6123    8.7629    8.7718   12.6612
          22.9346   27.6410   27.7425   40.7537   41.5080   42.9570   43.3808   47.4513   47.8181   53.3786
   64.2529   65.0618   73.1738   73.5968   74.1821  109.3747
  10  1  -22.9012  -11.0374   -6.9356   -6.8238    4.6147    4.7757    7.5783    8.7667    8.7852   12.6653
          22.9144   27.5653   27.6910   40.3400   41.1931   42.9964   43.5375   47.5186   47.9845   53.7124
   64.6804   65.6692   73.2234   73.7165   73.7624  109.6051
  11  1  -22.8913  -11.0243   -6.9802   -6.8475    4.6208    4.8231    7.5405    8.7671    8.8045   12.6700
          22.8934   27.4825   27.6336   39.9330   40.8752   43.0400   43.7111   47.5761   48.1371   54.0154
   65.1701   66.3463   73.2056   73.2834   73.9573  109.8692
  12  1  -22.8803  -11.0097   -7.0293   -6.8734    4.6268    4.8754    7.4989    8.7676    8.8266   12.6751
          22.8721   27.3932   27.5705   39.5351   40.5569   43.0880   43.9009   47.6256   48.2741   54.2801
   65.7162   67.0895   72.6525   73.3575   74.1860  110.1689
  13  1  -22.8682  -10.9939   -7.0826   -6.9014    4.6328    4.9326    7.4534    8.7687    8.8511   12.6807
          22.8510   27.2979   27.5016   39.1480   40.2398   43.1405   44.1063   47.6688   48.3948   54.5029
   66.3089   67.8929   72.0601   73.4515   74.4542  110.5064
  14  1  -22.8549  -10.9766   -7.1401   -6.9313    4.6385    4.9945    7.4042    8.7703    8.8780   12.6868
          22.8303   27.1970   27.4272   38.7728   39.9254   43.1976   44.3267   47.7072   48.4988   54.6837
   66.9343   68.7459   71.4316   73.5758   74.7688  110.8836
  15  1  -22.8406  -10.9579   -7.2016   -6.9633    4.6441    5.0611    7.3514    8.7729    8.9075   12.6934
          22.8106   27.0910   27.3472   38.4102   39.6148   43.2592   44.5613   47.7419   48.5865   54.8244
   67.5754   69.6284   70.7703   73.7503   75.1376  111.3024
  16  1  -22.8251  -10.9379   -7.2671   -6.9971    4.6492    5.1321    7.2948    8.7764    8.9395   12.7004
          22.7921   26.9806   27.2617   38.0602   39.3087   43.3255   44.8098   47.7736   48.6581   54.9287
   68.2137   70.0795   70.5018   74.0132   75.5686  111.7645
  17  1  -22.8085  -10.9165   -7.3363   -7.0326    4.6540    5.2074    7.2347    8.7810    8.9740   12.7079
          22.7751   26.8661   27.1710   37.7231   39.0077   43.3963   45.0713   47.8032   48.7146   55.0008
   68.8310   69.3628   71.2979   74.4324   76.0683  112.2716
  18  1  -22.7908  -10.8938   -7.4092   -7.0699    4.6583    5.2871    7.1711    8.7868    9.0112   12.7158
          22.7600   26.7480   27.0752   37.3986   38.7122   43.4717   45.3455   47.8313   48.7566   55.0453
   68.6228   69.4126   71.9319   75.0923   76.6407  112.8248
  19  1  -22.7719  -10.8697   -7.4856   -7.1088    4.6619    5.3709    7.1040    8.7939    9.0509   12.7243
          22.7471   26.6267   26.9743   37.0865   38.4227   43.5516   45.6317   47.8582   48.7850   55.0667
   67.8638   69.9471   72.3703   76.0258   77.2848  113.4245
  20  1  -22.7519  -10.8442   -7.5654   -7.1492    4.6649    5.4588    7.0334    8.8025    9.0932   12.7331
          22.7363   26.5028   26.8686   36.7864   38.1393   43.6360   45.9294   47.8844   48.8008   55.0689
   67.0886   70.4302   72.6576   77.1879   77.9947  114.0709
[...]
 297  1  -22.9321  -11.0787   -6.7847   -6.7563    4.5659    4.6530    7.6980    8.7223    8.7715   12.6506
          22.9917   27.8337   27.8769   42.0977   42.5338   42.8033   43.0353   47.0939   47.2426   52.1926
   63.1498   63.6532   73.0791   73.1937   75.3878  108.8212
 298  1  -22.9369  -11.0852   -6.7667   -6.7395    4.5600    4.6311    7.7168    8.7131    8.7723   12.6483
          23.0056   27.8787   27.9051   42.5216   42.7783   42.8096   42.9493   46.9630   47.0257   51.8544
   62.9741   63.3074   73.0545   73.1165   75.6588  108.7057
 299  1  -22.9404  -11.0898   -6.7551   -6.7262    4.5551    4.6162    7.7302    8.7066    8.7730   12.6466
          23.0159   27.9108   27.9257   42.7579   42.8728   42.8902   43.0343   46.8264   46.8479   51.5939
   62.8434   63.0722   73.0322   73.0672   75.8539  108.6244
 300  1  -22.9424  -11.0925   -6.7486   -6.7178    4.5517    4.6076    7.7383    8.7027    8.7735   12.6457
          23.0222   27.9296   27.9386   42.7435   42.8567   43.1087   43.1871   46.7111   46.7353   51.4300
   62.7598   62.9392   73.0113   73.0457   75.9717  108.5761
 301  1  -22.9431  -11.0935   -6.7464   -6.7149    4.5504    4.6049    7.7410    8.7014    8.7737   12.6453
          23.0244   27.9356   27.9432   42.7381   42.8461   43.1896   43.2450   46.6673   46.6945   51.3741
   62.7304   62.8968   73.0026   73.0403   76.0110  108.5601

siesta: Eigenvalues (eV):
  ik is       eps
   1  1  -18.5799  -15.9501   -9.9965   -6.3836   -1.3690    3.7252   12.8076   14.2641   14.6024   15.5603
          18.3768   20.1940   21.2665   28.5077   29.6138   35.0335   42.4074   53.9023   57.2811   58.4551
   70.0695   71.7035   81.0406   98.1807  137.2870  150.6292
   2  1  -19.5610  -14.6519   -9.7844   -7.2398   -0.1771    3.8337   12.1698   13.9099   13.9903   14.2365
          19.0910   20.5744   21.9416   29.2830   29.8657   36.2613   43.2106   53.0252   55.7701   57.5269
   69.3080   71.2508   80.1358   98.5715  138.9155  142.2184
   3  1  -20.4496  -13.2502   -9.4401   -8.1659    1.2826    4.0040   11.3186   12.4807   12.9896   13.6684
          20.1725   21.2115   22.6341   30.2736   30.2913   38.4492   44.3561   51.7136   53.6211   56.1915
   65.6087   72.7341   78.9745   98.3228  136.0854  141.6070
   4  1  -21.2144  -11.8023   -9.0200   -8.9797    2.8256    4.2166   10.4415   10.5892   11.9603   13.3654
          21.5673   22.1067   23.0450   30.9359   31.4552   41.7496   45.6519   50.2603   51.3531   54.9996
   61.0177   73.8444   77.6005   96.8772  133.6186  140.9731
   5  1  -21.8450  -10.3620   -9.7495   -8.4315    4.3337    4.4356    8.7515    9.6801   10.9187   13.1098
          23.0612   23.2087   23.2530   31.9754   32.8898   45.3432   46.9499   49.0698   50.5652   54.3771
   56.0370   74.1855   75.9897   93.9488  128.1795  131.9712
   6  1  -22.3348  -10.3312   -9.0051   -7.8426    4.6057    5.6931    7.1033    9.1314    9.9730   12.9095
          22.8442   24.6165   24.9427   33.5472   34.7616   45.2024   48.0935   48.3458   51.1843   54.4545
   55.9098   73.8749   74.1523   88.9292  104.2082  126.1672
   7  1  -22.6793  -10.7528   -7.8441   -7.2886    4.6691    5.7684    6.7839    8.8413    9.2475   12.7647
          22.7188   26.0893   26.4972   35.8962   37.2693   43.9371   46.9611   47.9678   48.7762   54.9862
   64.5183   71.6635   73.1380   80.5886   81.8960  116.4551
   8  1  -22.8790  -11.0080   -7.0350   -6.8764    4.6275    4.8815    7.4940    8.7677    8.8292   12.6757
          22.8698   27.3829   27.5631   39.4915   40.5215   43.0936   43.9230   47.6307   48.2883   54.3069
   65.7800   67.1759   72.5885   73.3668   74.2137  110.2045
   9  1  -22.9431  -11.0935   -6.7464   -6.7149    4.5504    4.6049    7.7410    8.7014    8.7737   12.6453
          23.0244   27.9356   27.9432   42.7381   42.8461   43.1896   43.2450   46.6673   46.6945   51.3741
   62.7304   62.8968   73.0026   73.0403   76.0110  108.5601
  10  1  -17.8435  -16.7938  -10.0680   -5.9783   -1.8887    3.6881   13.0466   14.3783   14.8763   16.0707
          18.1190   20.0676   20.9753   28.1954   29.5252   34.6383   42.1176   54.2099   57.8252   58.7569
   69.6345   72.5318   81.4109   97.9183  136.8635  154.9563
  11  1  -19.0284  -15.2803  -10.1433   -6.7264   -0.8486    4.0977   12.3921   13.8035   13.8482   15.5698
          18.4611   20.6853   21.5198   27.0584   31.8569   35.9979   42.4550   54.2128   55.8182   58.0625
   70.4969   71.4583   81.5371   99.5466  138.2753  146.4649
  12  1  -19.9690  -13.9291   -9.8613   -7.6470    0.4961    4.2374   11.6333   12.5563   13.6255   14.4705
          19.0389   21.4127   22.2177   27.8435   32.3356   37.6022   43.4968   52.6659   53.9833   57.2605
   68.3815   71.7709   80.7140   99.4332  134.7021  142.7109
  13  1  -20.7965  -12.5119   -9.4513   -8.5463    1.9908    4.4274   10.5937   11.1665   13.1901   13.4094
          19.9737   22.4028   22.8041   28.7982   32.9824   40.2067   44.7642   50.8620   51.7380   56.3815
   64.2005   72.8478   79.7249   98.3415  128.7164  144.4759
  14  1  -21.4946  -11.0823   -9.3411   -8.9327    3.4996    4.6356    9.1279   10.1659   11.9060   13.1924
          21.2641   23.0528   23.5920   29.9827   33.8407   43.8229   46.0222   49.3342   49.7774   55.8354
   59.3854   73.2028   78.5242   95.8401  121.1065  144.0382
  15  1  -22.0555   -9.9977   -9.7084   -8.3392    4.8040    4.9143    7.6137    9.4662   10.7178   12.9997
          22.8525   22.9654   24.8839   31.5155   35.0295   45.6330   46.9764   48.5623   51.5599   54.5207
   55.8526   72.7833   77.0950   90.9548  107.2764  139.3550
  16  1  -22.4738  -10.4996   -8.4877   -7.7289    4.8473    6.1245    6.3313    9.0172    9.7414   12.8444
          22.7672   24.6100   26.1056   33.5518   36.6572   44.5014   47.2296   48.8124   49.7890   56.2804
   58.8107   71.5697   75.5508   81.4266   94.0127  127.5693
  17  1  -22.7469  -10.8380   -7.5471   -7.2008    4.7207    5.4242    7.0176    8.8121    9.1037   12.7339
          22.7316   26.2900   27.0360   36.3293   38.6465   43.5324   46.1211   47.3583   49.0729   56.0246
   66.9038   68.3029   73.6856   74.4020   81.1492  114.9227
  18  1  -22.8790  -11.0082   -7.0120   -6.8998    4.5943    4.9184    7.4945    8.7677    8.8266   12.6754
          22.8682   27.3811   27.5645   39.4526   40.5620   43.0222   43.9971   47.6576   48.2968   54.3061
   65.6320   67.3161   72.5902   73.3956   74.1778  110.1963
  19  1  -22.8790  -11.0080   -7.0350   -6.8764    4.6275    4.8815    7.4940    8.7677    8.8292   12.6757
          22.8698   27.3829   27.5631   39.4915   40.5215   43.0936   43.9230   47.6307   48.2883   54.3069
   65.7800   67.1759   72.5885   73.3668   74.2137  110.2045
  20  1  -22.7467  -10.8376   -7.5690   -7.1780    4.7600    5.3743    7.0161    8.8122    9.1112   12.7350
          22.7361   26.2971   27.0294   36.3506   38.6241   43.6074   46.0390   47.3080   49.0746   55.9759
   66.8976   68.3762   73.6641   74.3763   81.1451  114.9593
[...]
 168  1  -18.7654  -14.2879  -12.4010   -6.3226   -0.8833    7.9439    9.6617   11.3201   13.0107   17.9600
          18.1710   20.5285   21.7750   23.4858   35.8440   41.1067   47.4148   49.1982   52.7812   64.4669
   70.2663   75.9577  101.5742  109.1151  121.2846  161.4207
 169  1  -18.6379  -14.9955  -11.6664   -6.2574   -1.1117    6.3441   11.1468   11.9074   13.3371   17.3888
          18.2041   20.9050   21.4314   23.8930   35.6332   39.1031   44.1450   51.5642   54.8383   61.5661
   70.1804   75.3551   90.3049  106.8213  135.9762  153.9863
 170  1  -18.3920  -15.7796  -10.8760   -6.1481   -1.4542    4.9757   12.2011   12.8888   14.0187   16.7001
          18.2337   20.8605   21.0777   24.9243   34.2275   36.8787   42.0030   54.4575   56.2071   58.7004
   69.8499   74.2793   84.5053  102.8192  140.9878  151.6769
 171  1  -18.0672  -16.4506  -10.2900   -6.0420   -1.7507    4.0391   12.8009   13.8994   14.6986   16.2038
          18.1852   20.3102   20.9919   26.5687   31.6281   35.2535   41.9215   55.0466   56.8518   58.5068
   69.6397   73.1116   82.0553   99.2759  138.2072  154.0136
 172  1  -17.8576  -16.7784  -10.0717   -5.9970   -1.8675    3.7027   13.0238   14.3707   14.9010   16.0825
          18.1095   20.0855   20.9140   28.1971   29.5729   34.6568   42.1852   54.1637   57.8270   58.7759
   69.6014   72.5639   81.3943   97.8808  136.9565  154.5599
siesta: Fermi energy =      -3.650892 eV
siesta: PDOS info:
siesta: e1, e2, sigma, nhist:   -15.00 eV   15.00 eV    0.10 eV    500

siesta: Program's energy decomposition (eV):
siesta: Ebs     =      -101.820757
siesta: Eions   =       524.139309
siesta: Ena     =       116.076595
siesta: Ekin    =       219.369671
siesta: Enl     =       -21.894956
siesta: Eso     =         0.000000
siesta: Eldau   =         0.000000
siesta: DEna    =        -4.311947
siesta: DUscf   =         0.419350
siesta: DUext   =         0.000000
siesta: Exc     =       -95.283612
siesta: eta*DQ  =         0.000000
siesta: Emadel  =         0.000000
siesta: Emeta   =         0.000000
siesta: Emolmec =         0.000000
siesta: Ekinion =         0.000000
siesta: Eharris =      -309.764208
siesta: Etot    =      -309.764208
siesta: FreeEng =      -309.764636

siesta: Final energy (eV):
siesta:  Band Struct. =    -101.820757
siesta:       Kinetic =     219.369671
siesta:       Hartree =    1532.754027
siesta:       Eldau   =       0.000000
siesta:       Eso     =       0.000000
siesta:    Ext. field =       0.000000
siesta:   Exch.-corr. =     -95.283612
siesta:  Ion-electron =   -3262.641421
siesta:       Ion-ion =    1296.037127
siesta:       Ekinion =       0.000000
siesta:         Total =    -309.764208
siesta:         Fermi =      -3.650892

siesta: Atomic forces (eV/Ang):
siesta:      1    0.049359   -0.028498   -0.001817
siesta:      2   -0.048542    0.028026    0.007327
siesta: ----------------------------------------
siesta:    Tot    0.000817   -0.000472    0.005510

siesta: Stress tensor (static) (eV/Ang**3):
siesta:     0.000193   -0.000252   -0.000004
siesta:    -0.000252   -0.000098    0.000002
siesta:    -0.000004    0.000002    0.000030

siesta: Cell volume =        106.254548 Ang**3

siesta: Pressure (static):
siesta:                Solid            Molecule  Units
siesta:          -0.00000045         -0.00000183  Ry/Bohr**3
siesta:          -0.00004159         -0.00016820  eV/Ang**3
siesta:          -0.06663246         -0.26949552  kBar
(Free)E+ p_basis*V_orbitals  =        -309.177553
(Free)Eharris+ p_basis*V_orbitals  =        -309.177553

siesta: Electric dipole (a.u.)  =    0.000000   -0.000000   -0.000008
siesta: Electric dipole (Debye) =    0.000000   -0.000000   -0.000020

Hirshfeld Net Atomic Populations:
Atom #    Qatom  Species
     1   -0.000  C
     2    0.000  C

Voronoi Net Atomic Populations:
Atom #    Qatom  Species
     1    0.004  C
     2   -0.004  C

cite: Please see "graphene.bib" for an exhaustive BiBTeX file.
cite: This calculation has made use of the following articles.
cite: Articles are encouraged to be cited in a published work.
        Primary SIESTA paper
          DOI: www.doi.org/10.1088/0953-8984/14/11/302

>> End of run:  20-APR-2024  14:44:51
Job completed