>> Start of run:  20-APR-2024  14:44:41

reinit: Reading from standard input
reinit: Dumped input in INPUT_TMP.35997
************************** Dump of input data file ****************************
        # -- NAME & LABEL --
SystemName       relaxation
SystemLabel      graphene
        # -- MATERIAL --
NumberOfAtoms    2
NumberOfSpecies  1
%block ChemicalSpeciesLabel
    1    6  C
%endblock ChemicalSpeciesLabel
       # -- CELL & ATOMIC POSITIONS
LatticeConstant 1.0 Ang
%block LatticeParameters
  2.460000  2.460000  20.000000  90.000000  90.000000  120.000000
%endblock LatticeParameters
AtomicCoordinatesFormat NotScaledCartesianAng
%block AtomicCoordinatesAndAtomicSpecies
     0.000000000     0.000000000     9.700000000    1
    -0.000012300     1.420288764     9.700000000    1
%endblock AtomicCoordinatesAndAtomicSpecies
       # --MONKHORST PACK --
%block kgrid_Monkhorst_Pack
13   0   0      0.500
0    13   0      0.500
0    0   1      0.500
%endblock kgrid_Monkhorst_Pack
       # --SELF CONSISTENT FIELD - -
MeshCutoff           200.0 Ry
PAO.BasisSize        DZP      # or DZP
PAO.BasisType        split
SolutionMethod       diagon
XC.authors           PBE
XC.functional        GGA
MaxSCFIterations     200
DM.Tolerance         1.d-5    # 0.01 eV
DM.MixingWeight      0.05
DM.NumberPulay       5
       # --MOLECULAR DYNAMICS or CONJUGATE GRADIENT METHOD --
MD.TypeOfRun         cg     # cg: stuctural optimization
MD.NumCGsteps        200    # maximum number of cg minimization moves
MD.MaxCGDispl        0.05  Ang
MD.MaxForceTol       0.02 eV/Ang
MD.VariableCell      T      # T: true, cell relaxation; otherwise: F
MD.ConstantVolume    F
MD.UseSaveXV         T      # read the atomic positions stored in the SystemLabel.XV file
MD.UseSaveCG         T      # read the cg history information stored in the SystemLabel.CG file; used for continuation of the interrupted CG runs
WriteMDHistory       T      # store the atomic coordinates and energy,temperature, etc. in the SystemLabel.MD and SystemLabel.MDE
       # -- SPIN --
SpinPolarized        F      #If spin polarized, use T
DM.InitSpinAF        F      #gives the antiferromagnetic order if T, otherwise all spin up if F
       # -- SAVING DENSITY MATRIX FOR POST RUN --
ON.UseSAVELWF        T
DM.UseSaveDM         T
UseSaveData          T
LongOutput           T
************************** End of input data file *****************************

reinit: -----------------------------------------------------------------------
reinit: System Name: relaxation
reinit: -----------------------------------------------------------------------
reinit: System Label: graphene
reinit: -----------------------------------------------------------------------

initatom: Reading input for the pseudopotentials and atomic orbitals ----------
Species number:   1 Atomic number:    6 Label: C

Ground state valence configuration:   2s02  2p02
Reading pseudopotential information in formatted form from C.psf

Valence configuration for pseudopotential generation:
2s( 2.00) rc: 1.56
2p( 2.00) rc: 1.56
3d( 0.00) rc: 1.56
4f( 0.00) rc: 1.56
For C, standard SIESTA heuristics set lmxkb to 3
 (one more than the basis l, including polarization orbitals).
Use PS.lmax or PS.KBprojectors blocks to override.

<basis_specs>
C                    Z=   6    Mass=  12.010        Charge= 0.17977+309
Lmxo=1 Lmxkb= 3    BasisType=split      Semic=F
L=0  Nsemic=0  Cnfigmx=2
          i=1  nzeta=2  polorb=0  (2s)
            splnorm:   0.15000
               vcte:    0.0000
               rinn:    0.0000
               qcoe:    0.0000
               qyuk:    0.0000
               qwid:   0.10000E-01
                rcs:    0.0000      0.0000
            lambdas:    1.0000      1.0000
L=1  Nsemic=0  Cnfigmx=2
          i=1  nzeta=2  polorb=1  (2p)
            splnorm:   0.15000
               vcte:    0.0000
               rinn:    0.0000
               qcoe:    0.0000
               qyuk:    0.0000
               qwid:   0.10000E-01
                rcs:    0.0000      0.0000
            lambdas:    1.0000      1.0000
L=0  Nkbl=1  erefs: 0.17977+309
L=1  Nkbl=1  erefs: 0.17977+309
L=2  Nkbl=1  erefs: 0.17977+309
L=3  Nkbl=1  erefs: 0.17977+309
</basis_specs>

atom: Called for C                     (Z =   6)

read_vps: Pseudopotential generation method:
read_vps: ATM 3.2.2 Troullier-Martins
Total valence charge:    4.00000

xc_check: Exchange-correlation functional:
xc_check: GGA Perdew, Burke & Ernzerhof 1996
V l=0 = -2*Zval/r beyond r=  1.5227
V l=1 = -2*Zval/r beyond r=  1.5227
V l=2 = -2*Zval/r beyond r=  1.5227
V l=3 = -2*Zval/r beyond r=  1.5227
All V_l potentials equal beyond r=  1.4851
This should be close to max(r_c) in ps generation
All pots = -2*Zval/r beyond r=  1.5227

VLOCAL1: 99.0% of the norm of Vloc inside     19.682 Ry
VLOCAL1: 99.9% of the norm of Vloc inside     44.856 Ry
atom: Maximum radius for 4*pi*r*r*local-pseudopot. charge    1.79142
atom: Maximum radius for r*vlocal+2*Zval:    1.54183
GHOST: No ghost state for L =  0
GHOST: No ghost state for L =  1
GHOST: No ghost state for L =  2
GHOST: No ghost state for L =  3

KBgen: Kleinman-Bylander projectors:
   l= 0   rc=  1.661951   el= -1.010689   Ekb=  5.289847   kbcos=  0.316429
   l= 1   rc=  1.661951   el= -0.388490   Ekb= -4.102504   kbcos= -0.351025
   l= 2   rc=  1.747182   el=  0.001971   Ekb= -1.006005   kbcos= -0.008530
   l= 3   rc=  1.791422   el=  0.003065   Ekb= -0.421399   kbcos= -0.001072

KBgen: Total number of  Kleinman-Bylander projectors:   16
atom: -------------------------------------------------------------------------

atom: SANKEY-TYPE ORBITALS:
atom: Selected multiple-zeta basis: split

SPLIT: Orbitals with angular momentum L= 0

SPLIT: Basis orbitals for state 2s

SPLIT: PAO cut-off radius determined from an
SPLIT: energy shift=  0.020000 Ry

   izeta = 1
                 lambda =    1.000000
                     rc =    4.088342
                 energy =   -0.990050
                kinetic =    0.909804
    potential(screened) =   -1.899854
       potential(ionic) =   -5.513925

   izeta = 2
                 rmatch =    3.347176
              splitnorm =    0.150000
                 energy =   -0.836186
                kinetic =    1.375045
    potential(screened) =   -2.211230
       potential(ionic) =   -6.057915

SPLIT: Orbitals with angular momentum L= 1

SPLIT: Basis orbitals for state 2p

SPLIT: PAO cut-off radius determined from an
SPLIT: energy shift=  0.020000 Ry

   izeta = 1
                 lambda =    1.000000
                     rc =    4.870301
                 energy =   -0.368677
                kinetic =    2.532104
    potential(screened) =   -2.900781
       potential(ionic) =   -6.401132

   izeta = 2
                 rmatch =    3.475094
              splitnorm =    0.150000
                 energy =   -0.205777
                kinetic =    3.787472
    potential(screened) =   -3.993249
       potential(ionic) =   -7.860448

POLgen: Perturbative polarization orbital with L=  2

POLgen: Polarization orbital for state 2p

   izeta = 1
                     rc =    4.870301
                 energy =    1.296521
                kinetic =    2.641128
    potential(screened) =   -1.344607
       potential(ionic) =   -4.300412
atom: Total number of Sankey-type orbitals: 13

atm_pop: Valence configuration (for local Pseudopot. screening):
 2s( 2.00)
 2p( 2.00)
Vna: chval, zval:    4.00000   4.00000

Vna:  Cut-off radius for the neutral-atom potential:   4.870301

atom: _________________________________________________________________________

prinput: Basis input ----------------------------------------------------------

PAO.BasisType split

%block ChemicalSpeciesLabel
    1    6 C                       # Species index, atomic number, species label
%endblock ChemicalSpeciesLabel

%block PAO.Basis                 # Define Basis set
C                     2                    # Species label, number of l-shells
 n=2   0   2                         # n, l, Nzeta
   4.088      3.347
   1.000      1.000
 n=2   1   2 P   1                   # n, l, Nzeta, Polarization, NzetaPol
   4.870      3.475
   1.000      1.000
%endblock PAO.Basis

prinput: ----------------------------------------------------------------------

Dumping basis to NetCDF file C.ion.nc
coor:   Atomic-coordinates input format  =     Cartesian coordinates
coor:                                          (in Angstroms)

ioxv: Reading coordinates and velocities from file
! Info in XV file prevails over previous structure input

siesta: Atomic coordinates (Bohr) and species
siesta:     -0.00092   0.00053  18.33113  1        1
siesta:      0.00030   2.70145  18.33041  1        2

siesta: System type = slab

initatomlists: Number of atoms, orbitals, and projectors:      2    26    32

siesta: ******************** Simulation parameters ****************************
siesta:
siesta: The following are some of the parameters of the simulation.
siesta: A complete list of the parameters used, including default values,
siesta: can be found in file out.fdf
siesta:
redata: Spin configuration                          = none
redata: Number of spin components                   = 1
redata: Time-Reversal Symmetry                      = T
redata: Spin-spiral                                 = F
redata: Long output                                 =   T
redata: Number of Atomic Species                    =        1
redata: Charge density info will appear in .RHO file
redata: Write Mulliken Pop.                         = Atomic and Orbital charges
redata: Matel table size (NRTAB)                    =     1024
redata: Mesh Cutoff                                 =   200.0000 Ry
redata: Net charge of the system                    =     0.0000 |e|
redata: Min. number of SCF Iter                     =        0
redata: Max. number of SCF Iter                     =      200
redata: SCF convergence failure will abort job
redata: SCF mix quantity                            = Hamiltonian
redata: Mix DM or H after convergence               =   F
redata: Recompute H after scf cycle                 =   F
redata: Mix DM in first SCF step                    =   T
redata: Write Pulay info on disk                    =   F
redata: New DM Occupancy tolerance                  = 0.000000000001
redata: No kicks to SCF
redata: DM Mixing Weight for Kicks                  =     0.5000
redata: Require Harris convergence for SCF          =   F
redata: Harris energy tolerance for SCF             =     0.000100 eV
redata: Require DM convergence for SCF              =   T
redata: DM tolerance for SCF                        =     0.000010
redata: Require EDM convergence for SCF             =   F
redata: EDM tolerance for SCF                       =     0.001000 eV
redata: Require H convergence for SCF               =   T
redata: Hamiltonian tolerance for SCF               =     0.001000 eV
redata: Require (free) Energy convergence for SCF   =   F
redata: (free) Energy tolerance for SCF             =     0.000100 eV
redata: Using Saved Data (generic)                  =   T
redata: Use continuation files for DM               =   T
redata: Neglect nonoverlap interactions             =   F
[...]
siesta: k-grid:    0  13   0      0.500
siesta: k-grid:    0   0   1      0.500

diag: Algorithm                                     = D&C
diag: Parallel over k                               =   F
diag: Use parallel 2D distribution                  =   T
diag: Parallel block-size                           = 4
diag: Parallel distribution                         =     2 x     3
diag: Used triangular part                          = Lower
diag: Absolute tolerance                            =  0.100E-15
diag: Orthogonalization factor                      =  0.100E-05

superc: Internal auxiliary supercell:     5 x     7 x     1  =      35
superc: Number of atoms, orbitals, and projectors:     70    910   1120

ts: **************************************************************
ts: Save H and S matrices                           =    F
ts: Save DM and EDM matrices                        =    F
ts: Only save the overlap matrix S                  =    F
ts: **************************************************************

************************ Begin: TS CHECKS AND WARNINGS ************************
************************ End: TS CHECKS AND WARNINGS **************************

                        Begin CG opt. move =      0

outcoor: Atomic coordinates (Ang):
   -0.00048668    0.00028099    9.70041275   1       1  C
    0.00015820    1.42954712    9.70003285   1       2  C

superc: Internal auxiliary supercell:     5 x     7 x     1  =      35
superc: Number of atoms, orbitals, and projectors:     70    910   1120

outcell: Unit cell vectors (Ang):
        2.477179   -0.000562    0.000003
       -1.239076    2.145019   -0.000003
        0.000023   -0.000013   19.999344

outcell: Cell vector modules (Ang)   :    2.477179    2.477179   19.999344
outcell: Cell angles (23,13,12) (deg):     90.0001     89.9999    120.0260
outcell: Cell volume (Ang**3)        :    106.2545
<dSpData1D:S at geom step 0
  <sparsity:sparsity for geom step 0
    nrows_g=26 nrows=6 sparsity=4.2337 nnzs=2862, refcount: 7>
  <dData1D:(new from dSpData1D) n=2862, refcount: 1>
refcount: 1>
new_DM -- step:     1
Initializing Density Matrix...

Attempting to read DM from file... Succeeded...
DM from file:
<dSpData2D:IO-DM: graphene.DM
  <sparsity:IO-DM: graphene.DM
    nrows_g=26 nrows=6 sparsity=4.2337 nnzs=2862, refcount: 1>
  <dData2D:(new from dSpData2D) n=2862 m=1, refcount: 1>
refcount: 1>
DM to be used:
<dSpData2D:Re-structured SpM
  <sparsity:sparsity for geom step 0
    nrows_g=26 nrows=6 sparsity=4.2337 nnzs=2862, refcount: 8>
  <dData2D:(new in restruct) n=2862 m=1, refcount: 1>
refcount: 1>
No. of atoms with KB's overlaping orbs in proc 0. Max # of overlaps:      16     157
New grid distribution:   1
           1       1:   10    1:    5    1:   30
           2       1:   10    1:    5   31:   60
           3       1:   10    1:    5   61:   90
           4       1:   10    6:   10    1:   30
           5       1:   10    6:   10   31:   60
           6       1:   10    6:   10   61:   90

InitMesh: MESH =    20 x    20 x   180 =       72000
InitMesh: (bp) =    10 x    10 x    90 =        9000
InitMesh: Mesh cutoff (required, used) =   200.000   223.880 Ry
ExtMesh (bp) on 0 =    62 x    57 x    78 =      275652
New grid distribution:   2
           1       1:   10    1:   10   41:   42
           2       1:   10    1:   10   45:   46
           3       1:   10    1:   10   49:   90
           4       1:   10    1:   10   43:   44
           5       1:   10    1:   10    1:   40
           6       1:   10    1:   10   47:   48
New grid distribution:   3
           1       1:   10    1:   10   37:   40
           2       1:   10    1:   10   45:   48
           3       1:   10    1:   10   53:   90
           4       1:   10    1:   10   41:   44
           5       1:   10    1:   10    1:   36
           6       1:   10    1:   10   49:   52
Setting up quadratic distribution...
ExtMesh (bp) on 0 =    62 x    62 x    50 =      192200
PhiOnMesh: Number of (b)points on node 0 =                  200
PhiOnMesh: nlist on node 0 =                16816

stepf: Fermi-Dirac step function

siesta: Program's energy decomposition (eV):
siesta: Ebs     =      -101.823233
siesta: Eions   =       524.139309
siesta: Ena     =       116.076595
siesta: Ekin    =       219.366672
siesta: Enl     =       -21.894464
siesta: Eso     =         0.000000
siesta: Eldau   =         0.000000
siesta: DEna    =        -4.311354
siesta: DUscf   =         0.419361
siesta: DUext   =         0.000000
siesta: Exc     =       -95.283549
siesta: eta*DQ  =         0.000000
siesta: Emadel  =         0.000000
siesta: Emeta   =         0.000000
siesta: Emolmec =         0.000000
siesta: Ekinion =         0.000000
siesta: Eharris =      -309.767886
siesta: Etot    =      -309.766048
siesta: FreeEng =      -309.766048

SCF Convergence by DM+H criterion
max |DM_out - DM_in|         :     0.0000053205
max |H_out - H_in|      (eV) :     0.0000201866
SCF cycle converged after 4 iterations

Using DM_out to compute the final energy and forces
No. of atoms with KB's overlaping orbs in proc 0. Max # of overlaps:      16     157

siesta: E_KS(eV) =             -309.7660

siesta: E_KS - E_eggbox =      -309.7660

siesta: Atomic forces (eV/Ang):
     1    0.008060   -0.004654   -0.001821
     2   -0.007255    0.004189    0.007328
   Tot    0.000806   -0.000465    0.005507
   Max    0.008060
   Res    0.005970    sqrt( Sum f_i^2 / 3N )
   Max    0.008060    constrained

Stress-tensor-Voigt (kbar):        0.03        0.19        0.05        0.14        0.00       -0.01
(Free)E + p*V (eV/cell)     -309.7719
Target enthalpy (eV/cell)     -309.7660

siesta: Stress tensor (static) (eV/Ang**3):
         0.000017    0.000087   -0.000004
         0.000087    0.000118    0.000002
        -0.000004    0.000002    0.000030

siesta: Pressure (static):         -0.08787142  kBar

siesta: Stress tensor (total) (eV/Ang**3):
         0.000017    0.000087   -0.000004
         0.000087    0.000118    0.000002
        -0.000004    0.000002    0.000030

siesta: Pressure (total):         -0.08787142  kBar

mulliken: Atomic and Orbital Populations:

Species: C
Atom  Qatom  Qorb
               3Pdxy   3Pdyz   3Pdz2   3Pdxz   3Pdx2-y2
   1  3.999   0.461   0.504   0.497   0.773   0.497   0.473   0.165   0.473
              0.046   0.031   0.002   0.031   0.046
   2  4.001   0.461   0.505   0.496   0.773   0.496   0.474   0.165   0.474
              0.046   0.031   0.002   0.031   0.046

mulliken: Qtot =        8.000

cgvc: No target stress found, assuming hydrostatic MD.TargetPressure.

cgvc: Target stress (kBar)
cgvc:        -0.000       0.000       0.000
cgvc:         0.000      -0.000       0.000
cgvc:         0.000       0.000      -0.000

iocg: Reading CG continuation file

outcoor: Relaxed atomic coordinates (Ang):
   -0.00048668    0.00028099    9.70041275   1       1  C
    0.00015820    1.42954712    9.70003285   1       2  C

outcell: Unit cell vectors (Ang):
        2.477179   -0.000562    0.000003
       -1.239076    2.145019   -0.000003
        0.000023   -0.000013   19.999344

outcell: Cell vector modules (Ang)   :    2.477179    2.477179   19.999344
outcell: Cell angles (23,13,12) (deg):     90.0001     89.9999    120.0260
outcell: Cell volume (Ang**3)        :    106.2545

siesta: Eigenvalues (eV):
  ik is       eps
   1  1  -19.2798  -14.9964   -9.9699   -6.9639   -0.5475    3.9554   12.3133   13.7735   13.9237   15.0708
          18.6936   20.6543   21.7104   27.8319   31.1659   36.0592   42.7969   53.6212   55.8567   57.8498
   70.4813   70.8229   80.8683   99.0213  138.2534  144.5053
   2  1  -20.5199  -13.0728   -9.5054   -8.2412    1.4353    4.1827   11.1586   11.8508   13.3714   13.5649
          19.8706   21.7233   22.6571   28.9668   31.9678   38.9191   44.3749   51.5690   52.9834   56.3416
   65.5155   72.6872   79.4620   98.5581  133.0886  143.0552
   3  1  -21.5220  -11.0784   -9.3731   -8.8219    3.5479    4.4767    9.3654   10.1147   11.6838   13.2116
          21.6380   23.0761   23.3009   30.4614   33.2160   43.7677   46.1563   49.4780   50.1412   55.2115
   58.9699   73.5933   77.7107   95.7372  125.3970  141.9206
   4  1  -22.2607  -10.2422   -9.1803   -8.0068    4.7131    5.4821    7.1797    9.2226   10.1897   12.9317
          22.8773   23.8519   25.2000   32.6473   35.2055   45.2825   47.4704   48.5540   52.0789   54.6513
   55.2369   72.9302   75.6537   88.8017  103.6100  132.1718
   5  1  -22.7230  -10.8078   -7.6496   -7.2378    4.7184    5.5300    6.9344    8.8226    9.1563   12.7445
          22.7241   26.1616   26.8995   36.0663   38.2507   43.6561   46.4417   47.4766   49.0270   55.8117
   66.0266   69.4190   73.6031   75.5292   82.1886  115.6973
   6  1  -22.9126  -11.0526   -6.8602   -6.8202    4.5743    4.7556    7.6221    8.7585    8.7701   12.6598
          22.9398   27.6597   27.7600   40.8383   41.6446   42.8739   43.4090   47.4466   47.7776   53.2629
   63.9953   65.0198   73.1882   73.5202   74.3166  109.3062
   7  1  -22.8505  -10.9707   -7.1596   -6.9418    4.6761    4.9767    7.3874    8.7737    8.8875   12.6890
          22.8247   27.1159   27.4510   38.5035   40.0484   43.2251   44.3898   47.4085   48.7245   54.9822
   65.9022   69.8641   71.2207   73.4986   75.1480  111.0967
   8  1  -22.5267  -10.5640   -8.3559   -7.5905    4.7677    6.2349    6.2861    8.9631    9.6050   12.8275
          22.7515   25.0374   26.1132   34.1683   36.5707   44.4499   47.4963   48.8240   49.0096   55.5741
   60.0901   71.9165   74.6261   82.0027   92.0817  123.7302
   9  1  -21.9250  -10.1077   -9.8432   -8.4176    4.5537    4.6190    8.2128    9.6083   10.9107   13.0634
          22.7075   23.0273   24.2296   31.4610   34.0709   45.6514   46.9256   48.8048   50.6410   55.0529
   55.5010   73.4314   76.7146   93.0541  116.0915  138.1501
  10  1  -21.0524  -12.0779   -9.1844   -8.8348    2.4933    4.3292   10.4112   10.8061   12.5284   13.3857
          20.6814   22.4579   22.9633   29.6709   32.5017   41.1212   45.2617   50.4440   51.4209   55.6609
   62.3260   73.3347   78.6333   97.5026  129.9350  143.5749
  11  1  -19.9264  -14.0533   -9.7670   -7.6054    0.4027    4.0569   11.7748   12.8763   13.7559   14.2561
          19.1953   21.1261   22.2115   28.3809   31.5053   37.2416   43.5214   52.6634   54.5445   57.1440
   68.2494   71.7740   80.1987   99.0186  136.7491  141.6836
  12  1  -18.5949  -15.8836  -10.1056   -6.3815   -1.3429    3.8862   12.7173   14.0644   14.4183   15.7517
          18.3373   20.3417   21.2725   27.4075   30.9069   35.2969   42.2595   54.2906   56.8357   58.3750
   70.0659   72.0097   81.3991   98.8007  137.7437  150.4148
  13  1  -17.9616  -16.6187  -10.1747   -6.0017   -1.8303    3.8506   12.9359   14.1389   14.7920   16.1176
          18.1642   20.1768   21.0160   27.1471   30.7793   34.9287   41.9773   54.6549   57.3429   58.6200
   69.6483   72.8095   81.7153   98.6005  137.4736  154.7243
  14  1  -19.7323  -13.9421  -10.5748   -7.3789    0.2452    5.2170   10.9633   12.3949   12.9958   15.6893
          18.3320   21.8669   22.0192   26.0152   34.8757   38.6185   43.3258   52.2016   52.8131   59.1565
   70.6538   71.2231   84.5161  102.0281  128.4289  146.0874
  15  1  -20.8531  -12.0607   -9.9455   -8.6044    2.2076    5.4479    9.1297   11.0015   13.1033   13.8400
          19.2419   22.6925   23.4736   27.6057   35.5263   41.8348   45.0225   49.3958   49.5323   59.0386
   64.8248   71.9416   83.8208   98.7418  114.8893  146.8988
  16  1  -21.7239  -10.2931   -9.6070   -9.0581    4.1027    5.5183    7.4463    9.9021   11.8308   13.0384
          21.1575   22.9872   24.8893   29.6695   36.0455   46.0846   46.1839   48.0219   48.1541   58.0963
   58.8020   71.6658   82.2133   90.4806  103.2727  147.6288
  17  1  -22.3278  -10.3230   -8.8824   -8.0324    5.0092    5.6898    6.5987    9.1713   10.1355   12.8938
          22.8295   23.7394   25.8563   32.4490   36.4359   44.8692   46.8771   48.6565   51.5578   55.8062
   57.1013   71.5111   77.2994   82.7313   97.2424  135.4943
  18  1  -22.6582  -10.7268   -7.9067   -7.3456    4.6483    5.8906    6.7139    8.8544    9.2839   12.7727
          22.7121   25.9827   26.3823   35.6615   37.0846   43.9698   47.3189   48.0142   48.7581   54.9581
   63.8353   71.8691   73.2401   81.2290   83.4898  117.1402
  19  1  -22.7230  -10.8078   -7.6496   -7.2378    4.7184    5.5300    6.9344    8.8226    9.1563   12.7445
          22.7241   26.1616   26.8995   36.0663   38.2507   43.6561   46.4417   47.4766   49.0270   55.8117
   66.0266   69.4190   73.6031   75.5292   82.1886  115.6973
  20  1  -22.5267  -10.5640   -8.3559   -7.5905    4.7677    6.2349    6.2861    8.9631    9.6050   12.8275
          22.7515   25.0374   26.1132   34.1683   36.5708   44.4499   47.4963   48.8240   49.0096   55.5741
   60.0901   71.9165   74.6261   82.0027   92.0817  123.7302
[...]
  87  1  -18.7109  -14.6408  -12.0358   -6.2897   -0.9897    7.0522   10.5167   11.5731   13.1354   17.6757
          18.1908   20.7614   21.6203   23.6298   35.7707   40.1316   45.6764   50.3172   53.9245   63.0920
   70.2601   75.6958   94.7231  108.2670  129.8563  157.6344
  88  1  -18.7736  -14.2196  -12.4719   -6.3268   -0.8674    8.1916    9.4203   11.2798   12.9904   18.0076
          18.1684   20.4899   21.7986   23.4633   35.8440   41.2880   47.7667   48.9924   52.5352   64.7179
   70.2561   75.9976  103.6530  109.0658  119.1262  162.1494
  89  1  -18.5908  -15.1806  -11.4758   -6.2346   -1.1869    6.0010   11.4365   12.1098   13.4656   17.2273
          18.2133   20.9745   21.3131   24.0704   35.4576   38.5683   43.4431   52.2298   55.2749   60.7968
   70.1130   75.1400   88.5400  105.9671  138.4296  152.5254
  90  1  -18.1950  -16.2163  -10.4790   -6.0783   -1.6524    4.3373   12.6130   13.5394   14.4791   16.3531
          18.2163   20.4989   21.0379   25.8761   32.6725   35.7755   41.8148   55.6823   56.0469   58.3459
   69.6947   73.5319   82.7291  100.4589  139.2682  153.3295
  91  1  -17.8562  -16.7805  -10.0712   -5.9967   -1.8682    3.7036   13.0239   14.3713   14.9005   16.0823
          18.1092   20.0857   20.9125   28.1973   29.5734   34.6567   42.1844   54.1636   57.8265   58.7758
   69.6024   72.5639   81.3946   97.8811  136.9564  154.5603
siesta: Fermi energy =      -3.652676 eV

siesta: Program's energy decomposition (eV):
siesta: Ebs     =      -101.823023
siesta: Eions   =       524.139309
siesta: Ena     =       116.076595
siesta: Ekin    =       219.366840
siesta: Enl     =       -21.894506
siesta: Eso     =         0.000000
siesta: Eldau   =         0.000000
siesta: DEna    =        -4.311455
siesta: DUscf   =         0.419364
siesta: DUext   =         0.000000
siesta: Exc     =       -95.283578
siesta: eta*DQ  =         0.000000
siesta: Emadel  =         0.000000
siesta: Emeta   =         0.000000
siesta: Emolmec =         0.000000
siesta: Ekinion =         0.000000
siesta: Eharris =      -309.766048
siesta: Etot    =      -309.766048
siesta: FreeEng =      -309.766048

siesta: Final energy (eV):
siesta:  Band Struct. =    -101.823023
siesta:       Kinetic =     219.366840
siesta:       Hartree =    1532.753592
siesta:       Eldau   =       0.000000
siesta:       Eso     =       0.000000
siesta:    Ext. field =       0.000000
siesta:   Exch.-corr. =     -95.283578
siesta:  Ion-electron =   -3262.640030
siesta:       Ion-ion =    1296.037127
siesta:       Ekinion =       0.000000
siesta:         Total =    -309.766048
siesta:         Fermi =      -3.652676

siesta: Stress tensor (static) (eV/Ang**3):
siesta:     0.000017    0.000087   -0.000004
siesta:     0.000087    0.000118    0.000002
siesta:    -0.000004    0.000002    0.000030

siesta: Constrained stress tensor (static) (eV/Ang**3):
siesta:     0.000017    0.000087   -0.000004
siesta:     0.000087    0.000118    0.000002
siesta:    -0.000004    0.000002    0.000030

siesta: Cell volume =        106.254548 Ang**3

siesta: Pressure (static):
siesta:                Solid            Molecule  Units
siesta:          -0.00000060         -0.00000081  Ry/Bohr**3
siesta:          -0.00005484         -0.00007465  eV/Ang**3
siesta:          -0.08787142         -0.11959964  kBar
(Free)E+ p_basis*V_orbitals  =        -309.178965
(Free)Eharris+ p_basis*V_orbitals  =        -309.178965

siesta: Electric dipole (a.u.)  =    0.000000   -0.000000   -0.000008
siesta: Electric dipole (Debye) =    0.000000   -0.000000   -0.000020

cite: Please see "graphene.bib" for an exhaustive BiBTeX file.
cite: This calculation has made use of the following articles.
cite: Articles are encouraged to be cited in a published work.
        Primary SIESTA paper
          DOI: www.doi.org/10.1088/0953-8984/14/11/302

>> End of run:  20-APR-2024  14:44:42
Job completed